p edge 286 500
e 1 2 1
e 2 7 1
e 2 3 1
e 3 8 1
e 3 4 1
e 4 9 1
e 5 14 1
e 5 6 1
e 6 15 1
e 7 21 1
e 7 8 1
e 8 22 1
e 8 9 1
e 9 23 1
e 9 10 1
e 10 24 1
e 10 11 1
e 11 25 1
e 11 12 1
e 12 26 1
e 12 13 1
e 13 27 1
e 13 14 1
e 14 28 1
e 14 15 1
e 15 29 1
e 15 16 1
e 16 30 1
e 16 17 1
e 17 31 1
e 18 36 1
e 18 19 1
e 19 37 1
e 20 21 1
e 21 38 1
e 21 22 1
e 22 39 1
e 22 23 1
e 23 40 1
e 23 24 1
e 24 41 1
e 24 25 1
e 25 42 1
e 25 26 1
e 26 43 1
e 26 27 1
e 27 44 1
e 27 28 1
e 28 45 1
e 28 29 1
e 29 46 1
e 29 30 1
e 30 47 1
e 30 31 1
e 31 48 1
e 31 32 1
e 32 49 1
e 32 33 1
e 33 50 1
e 33 34 1
e 34 51 1
e 34 35 1
e 35 52 1
e 35 36 1
e 36 53 1
e 36 37 1
e 38 55 1
e 38 39 1
e 39 56 1
e 39 40 1
e 40 57 1
e 40 41 1
e 41 58 1
e 41 42 1
e 42 59 1
e 42 43 1
e 43 60 1
e 43 44 1
e 44 61 1
e 44 45 1
e 45 62 1
e 45 46 1
e 46 63 1
e 46 47 1
e 47 64 1
e 47 48 1
e 48 65 1
e 48 49 1
e 49 66 1
e 49 50 1
e 50 67 1
e 50 51 1
e 51 68 1
e 51 52 1
e 52 69 1
e 52 53 1
e 53 70 1
e 54 71 1
e 55 74 1
e 55 56 1
e 56 75 1
e 56 57 1
e 57 76 1
e 57 58 1
e 58 77 1
e 58 59 1
e 59 78 1
e 59 60 1
e 60 79 1
e 60 61 1
e 61 80 1
e 61 62 1
e 62 81 1
e 62 63 1
e 63 82 1
e 63 64 1
e 64 83 1
e 64 65 1
e 65 84 1
e 65 66 1
e 66 85 1
e 66 67 1
e 67 86 1
e 67 68 1
e 68 87 1
e 68 69 1
e 69 88 1
e 69 70 1
e 70 89 1
e 71 72 1
e 72 90 1
e 72 73 1
e 73 91 1
e 73 74 1
e 74 92 1
e 74 75 1
e 75 93 1
e 75 76 1
e 76 94 1
e 76 77 1
e 77 95 1
e 77 78 1
e 78 96 1
e 78 79 1
e 79 97 1
e 79 80 1
e 80 98 1
e 80 81 1
e 81 99 1
e 81 82 1
e 82 100 1
e 82 83 1
e 83 101 1
e 83 84 1
e 84 102 1
e 84 85 1
e 85 103 1
e 85 86 1
e 86 104 1
e 86 87 1
e 87 105 1
e 87 88 1
e 88 106 1
e 88 89 1
e 90 107 1
e 90 91 1
e 91 108 1
e 91 92 1
e 92 109 1
e 92 93 1
e 93 110 1
e 93 94 1
e 94 111 1
e 94 95 1
e 95 112 1
e 95 96 1
e 96 113 1
e 96 97 1
e 97 114 1
e 97 98 1
e 98 115 1
e 98 99 1
e 99 116 1
e 99 100 1
e 100 117 1
e 100 101 1
e 101 118 1
e 101 102 1
e 102 119 1
e 102 103 1
e 103 120 1
e 103 104 1
e 104 121 1
e 104 105 1
e 105 122 1
e 105 106 1
e 106 123 1
e 107 125 1
e 107 108 1
e 108 126 1
e 108 109 1
e 109 127 1
e 109 110 1
e 110 128 1
e 110 111 1
e 111 129 1
e 111 112 1
e 112 130 1
e 112 113 1
e 113 131 1
e 113 114 1
e 114 132 1
e 114 115 1
e 115 133 1
e 115 116 1
e 116 134 1
e 116 117 1
e 117 135 1
e 117 118 1
e 118 136 1
e 118 119 1
e 119 137 1
e 119 120 1
e 120 138 1
e 120 121 1
e 121 139 1
e 121 122 1
e 122 140 1
e 122 123 1
e 123 141 1
e 124 142 1
e 124 125 1
e 125 143 1
e 125 126 1
e 126 144 1
e 126 127 1
e 127 145 1
e 127 128 1
e 128 146 1
e 128 129 1
e 129 147 1
e 129 130 1
e 130 148 1
e 130 131 1
e 131 149 1
e 131 132 1
e 132 150 1
e 132 133 1
e 133 151 1
e 133 134 1
e 134 152 1
e 134 135 1
e 135 153 1
e 135 136 1
e 136 154 1
e 136 137 1
e 137 155 1
e 137 138 1
e 138 156 1
e 138 139 1
e 139 157 1
e 139 140 1
e 140 158 1
e 140 141 1
e 141 159 1
e 142 160 1
e 142 143 1
e 143 161 1
e 143 144 1
e 144 162 1
e 144 145 1
e 145 163 1
e 145 146 1
e 146 164 1
e 146 147 1
e 147 165 1
e 147 148 1
e 148 166 1
e 148 149 1
e 149 167 1
e 149 150 1
e 150 168 1
e 150 151 1
e 151 169 1
e 151 152 1
e 152 170 1
e 152 153 1
e 153 171 1
e 153 154 1
e 154 172 1
e 154 155 1
e 155 173 1
e 155 156 1
e 156 174 1
e 156 157 1
e 157 175 1
e 157 158 1
e 158 176 1
e 158 159 1
e 159 177 1
e 160 181 1
e 160 161 1
e 161 182 1
e 161 162 1
e 162 183 1
e 162 163 1
e 163 184 1
e 163 164 1
e 164 185 1
e 164 165 1
e 165 186 1
e 165 166 1
e 166 187 1
e 166 167 1
e 167 188 1
e 167 168 1
e 168 189 1
e 168 169 1
e 169 190 1
e 169 170 1
e 170 191 1
e 170 171 1
e 171 192 1
e 171 172 1
e 172 193 1
e 172 173 1
e 173 194 1
e 173 174 1
e 174 195 1
e 174 175 1
e 175 196 1
e 175 176 1
e 176 197 1
e 176 177 1
e 177 198 1
e 177 178 1
e 178 199 1
e 178 179 1
e 179 200 1
e 179 180 1
e 180 201 1
e 181 202 1
e 181 182 1
e 182 203 1
e 182 183 1
e 183 204 1
e 183 184 1
e 184 205 1
e 184 185 1
e 185 206 1
e 185 186 1
e 186 187 1
e 187 188 1
e 188 189 1
e 189 207 1
e 189 190 1
e 190 208 1
e 190 191 1
e 191 192 1
e 192 193 1
e 193 194 1
e 194 195 1
e 195 209 1
e 195 196 1
e 196 210 1
e 196 197 1
e 197 211 1
e 197 198 1
e 198 212 1
e 198 199 1
e 199 213 1
e 199 200 1
e 200 214 1
e 200 201 1
e 201 215 1
e 202 216 1
e 202 203 1
e 203 217 1
e 203 204 1
e 204 218 1
e 204 205 1
e 205 219 1
e 205 206 1
e 206 220 1
e 207 208 1
e 209 221 1
e 209 210 1
e 210 222 1
e 210 211 1
e 211 223 1
e 211 212 1
e 212 224 1
e 212 213 1
e 213 225 1
e 213 214 1
e 214 226 1
e 214 215 1
e 216 217 1
e 217 227 1
e 217 218 1
e 218 228 1
e 218 219 1
e 219 220 1
e 221 222 1
e 222 223 1
e 223 224 1
e 224 229 1
e 224 225 1
e 225 230 1
e 225 226 1
e 227 231 1
e 227 228 1
e 228 232 1
e 229 233 1
e 229 230 1
e 230 234 1
e 231 235 1
e 231 232 1
e 232 236 1
e 233 238 1
e 233 234 1
e 234 239 1
e 235 241 1
e 235 236 1
e 236 242 1
e 236 237 1
e 237 243 1
e 238 250 1
e 238 239 1
e 239 251 1
e 240 252 1
e 240 241 1
e 241 253 1
e 241 242 1
e 242 254 1
e 242 243 1
e 243 255 1
e 243 244 1
e 244 256 1
e 244 245 1
e 245 257 1
e 245 246 1
e 246 258 1
e 247 248 1
e 248 259 1
e 248 249 1
e 249 260 1
e 249 250 1
e 250 261 1
e 250 251 1
e 251 262 1
e 252 264 1
e 252 253 1
e 253 265 1
e 253 254 1
e 254 266 1
e 254 255 1
e 255 267 1
e 255 256 1
e 256 257 1
e 257 258 1
e 259 268 1
e 259 260 1
e 260 269 1
e 260 261 1
e 261 270 1
e 261 262 1
e 262 271 1
e 262 263 1
e 264 272 1
e 264 265 1
e 265 273 1
e 265 266 1
e 266 274 1
e 266 267 1
e 267 275 1
e 268 276 1
e 268 269 1
e 269 277 1
e 269 270 1
e 270 278 1
e 270 271 1
e 271 279 1
e 272 273 1
e 273 274 1
e 274 280 1
e 274 275 1
e 275 281 1
e 276 277 1
e 277 282 1
e 277 278 1
e 278 283 1
e 278 279 1
e 279 284 1
e 280 285 1
e 280 281 1
e 281 286 1
e 282 283 1
e 283 284 1
e 285 286 1